c turning on binary mode checking
c parsing input formula with 259840 variables and 1039934 clauses
c finished parsing, read 2732371 bytes from proof file
c detected empty clause; start verification via backward checking
c 2329 of 1039934 clauses in core                            
c 700 of 114078 lemmas in core using 20754 resolution steps
c 0 RAT lemmas in core; 43 redundant literals in core lemmas
s VERIFIED
c verification time: 1.197 seconds
